c description: Graph pigeonhole principle formula on fast_gnp_random_graph(10,25,0.9)
c generator: CNFgen (0.9.0)
c copyright: (C) 2012-2020 Massimo Lauria <massimo.lauria@uniroma1.it>
c url: https://massimolauria.net/cnfgen
c
p cnf 233 984
1 2 3 4 5 6 7 8 9 10 11 12 13 14 15 16 17 18 19 20 21 22 23 24 25 0
26 27 28 29 30 31 32 33 34 35 36 37 38 39 40 41 42 43 44 45 46 47 48 49 0
50 51 52 53 54 55 56 57 58 59 60 61 62 63 64 65 66 67 68 69 70 0
71 72 73 74 75 76 77 78 79 80 81 82 83 84 85 86 87 88 89 90 91 92 93 94 0
95 96 97 98 99 100 101 102 103 104 105 106 107 108 109 110 111 112 113 114 115 116 117 118 0
119 120 121 122 123 124 125 126 127 128 129 130 131 132 133 134 135 136 137 138 139 140 141 142 0
143 144 145 146 147 148 149 150 151 152 153 154 155 156 157 158 159 160 161 162 163 164 165 166 0
167 168 169 170 171 172 173 174 175 176 177 178 179 180 181 182 183 184 185 186 187 188 0
189 190 191 192 193 194 195 196 197 198 199 200 201 202 203 204 205 206 207 208 209 210 211 212 0
213 214 215 216 217 218 219 220 221 222 223 224 225 226 227 228 229 230 231 232 233 0
-1 -26 0
-1 -50 0
-1 -71 0
-1 -95 0
-1 -119 0
-1 -143 0
-1 -167 0
-1 -189 0
-1 -213 0
-26 -50 0
-26 -71 0
-26 -95 0
-26 -119 0
-26 -143 0
-26 -167 0
-26 -189 0
-26 -213 0
-50 -71 0
-50 -95 0
-50 -119 0
-50 -143 0
-50 -167 0
-50 -189 0
-50 -213 0
-71 -95 0
-71 -119 0
-71 -143 0
-71 -167 0
-71 -189 0
-71 -213 0
-95 -119 0
-95 -143 0
-95 -167 0
-95 -189 0
-95 -213 0
-119 -143 0
-119 -167 0
-119 -189 0
-119 -213 0
-143 -167 0
-143 -189 0
-143 -213 0
-167 -189 0
-167 -213 0
-189 -213 0
-2 -27 0
-2 -51 0
-2 -72 0
-2 -96 0
-2 -120 0
-2 -144 0
-2 -168 0
-2 -190 0
-2 -214 0
-27 -51 0
-27 -72 0
-27 -96 0
-27 -120 0
-27 -144 0
-27 -168 0
-27 -190 0
-27 -214 0
-51 -72 0
-51 -96 0
-51 -120 0
-51 -144 0
-51 -168 0
-51 -190 0
-51 -214 0
-72 -96 0
-72 -120 0
-72 -144 0
-72 -168 0
-72 -190 0
-72 -214 0
-96 -120 0
-96 -144 0
-96 -168 0
-96 -190 0
-96 -214 0
-120 -144 0
-120 -168 0
-120 -190 0
-120 -214 0
-144 -168 0
-144 -190 0
-144 -214 0
-168 -190 0
-168 -214 0
-190 -214 0
-3 -28 0
-3 -52 0
-3 -73 0
-3 -97 0
-3 -121 0
-3 -145 0
-3 -169 0
-3 -191 0
-3 -215 0
-28 -52 0
-28 -73 0
-28 -97 0
-28 -121 0
-28 -145 0
-28 -169 0
-28 -191 0
-28 -215 0
-52 -73 0
-52 -97 0
-52 -121 0
-52 -145 0
-52 -169 0
-52 -191 0
-52 -215 0
-73 -97 0
-73 -121 0
-73 -145 0
-73 -169 0
-73 -191 0
-73 -215 0
-97 -121 0
-97 -145 0
-97 -169 0
-97 -191 0
-97 -215 0
-121 -145 0
-121 -169 0
-121 -191 0
-121 -215 0
-145 -169 0
-145 -191 0
-145 -215 0
-169 -191 0
-169 -215 0
-191 -215 0
-4 -29 0
-4 -53 0
-4 -74 0
-4 -98 0
-4 -122 0
-4 -146 0
-4 -170 0
-4 -216 0
-29 -53 0
-29 -74 0
-29 -98 0
-29 -122 0
-29 -146 0
-29 -170 0
-29 -216 0
-53 -74 0
-53 -98 0
-53 -122 0
-53 -146 0
-53 -170 0
-53 -216 0
-74 -98 0
-74 -122 0
-74 -146 0
-74 -170 0
-74 -216 0
-98 -122 0
-98 -146 0
-98 -170 0
-98 -216 0
-122 -146 0
-122 -170 0
-122 -216 0
-146 -170 0
-146 -216 0
-170 -216 0
-5 -30 0
-5 -75 0
-5 -99 0
-5 -123 0
-5 -147 0
-5 -171 0
-5 -192 0
-5 -217 0
-30 -75 0
-30 -99 0
-30 -123 0
-30 -147 0
-30 -171 0
-30 -192 0
-30 -217 0
-75 -99 0
-75 -123 0
-75 -147 0
-75 -171 0
-75 -192 0
-75 -217 0
-99 -123 0
-99 -147 0
-99 -171 0
-99 -192 0
-99 -217 0
-123 -147 0
-123 -171 0
-123 -192 0
-123 -217 0
-147 -171 0
-147 -192 0
-147 -217 0
-171 -192 0
-171 -217 0
-192 -217 0
-6 -31 0
-6 -54 0
-6 -76 0
-6 -100 0
-6 -124 0
-6 -148 0
-6 -172 0
-6 -193 0
-6 -218 0
-31 -54 0
-31 -76 0
-31 -100 0
-31 -124 0
-31 -148 0
-31 -172 0
-31 -193 0
-31 -218 0
-54 -76 0
-54 -100 0
-54 -124 0
-54 -148 0
-54 -172 0
-54 -193 0
-54 -218 0
-76 -100 0
-76 -124 0
-76 -148 0
-76 -172 0
-76 -193 0
-76 -218 0
-100 -124 0
-100 -148 0
-100 -172 0
-100 -193 0
-100 -218 0
-124 -148 0
-124 -172 0
-124 -193 0
-124 -218 0
-148 -172 0
-148 -193 0
-148 -218 0
-172 -193 0
-172 -218 0
-193 -218 0
-7 -55 0
-7 -77 0
-7 -101 0
-7 -125 0
-7 -149 0
-7 -173 0
-7 -194 0
-7 -219 0
-55 -77 0
-55 -101 0
-55 -125 0
-55 -149 0
-55 -173 0
-55 -194 0
-55 -219 0
-77 -101 0
-77 -125 0
-77 -149 0
-77 -173 0
-77 -194 0
-77 -219 0
-101 -125 0
-101 -149 0
-101 -173 0
-101 -194 0
-101 -219 0
-125 -149 0
-125 -173 0
-125 -194 0
-125 -219 0
-149 -173 0
-149 -194 0
-149 -219 0
-173 -194 0
-173 -219 0
-194 -219 0
-8 -32 0
-8 -56 0
-8 -78 0
-8 -126 0
-8 -150 0
-8 -174 0
-8 -195 0
-8 -220 0
-32 -56 0
-32 -78 0
-32 -126 0
-32 -150 0
-32 -174 0
-32 -195 0
-32 -220 0
-56 -78 0
-56 -126 0
-56 -150 0
-56 -174 0
-56 -195 0
-56 -220 0
-78 -126 0
-78 -150 0
-78 -174 0
-78 -195 0
-78 -220 0
-126 -150 0
-126 -174 0
-126 -195 0
-126 -220 0
-150 -174 0
-150 -195 0
-150 -220 0
-174 -195 0
-174 -220 0
-195 -220 0
-9 -33 0
-9 -57 0
-9 -79 0
-9 -102 0
-9 -127 0
-9 -151 0
-9 -175 0
-9 -196 0
-9 -221 0
-33 -57 0
-33 -79 0
-33 -102 0
-33 -127 0
-33 -151 0
-33 -175 0
-33 -196 0
-33 -221 0
-57 -79 0
-57 -102 0
-57 -127 0
-57 -151 0
-57 -175 0
-57 -196 0
-57 -221 0
-79 -102 0
-79 -127 0
-79 -151 0
-79 -175 0
-79 -196 0
-79 -221 0
-102 -127 0
-102 -151 0
-102 -175 0
-102 -196 0
-102 -221 0
-127 -151 0
-127 -175 0
-127 -196 0
-127 -221 0
-151 -175 0
-151 -196 0
-151 -221 0
-175 -196 0
-175 -221 0
-196 -221 0
-10 -34 0
-10 -58 0
-10 -103 0
-10 -128 0
-10 -152 0
-10 -176 0
-10 -197 0
-10 -222 0
-34 -58 0
-34 -103 0
-34 -128 0
-34 -152 0
-34 -176 0
-34 -197 0
-34 -222 0
-58 -103 0
-58 -128 0
-58 -152 0
-58 -176 0
-58 -197 0
-58 -222 0
-103 -128 0
-103 -152 0
-103 -176 0
-103 -197 0
-103 -222 0
-128 -152 0
-128 -176 0
-128 -197 0
-128 -222 0
-152 -176 0
-152 -197 0
-152 -222 0
-176 -197 0
-176 -222 0
-197 -222 0
-11 -35 0
-11 -59 0
-11 -80 0
-11 -104 0
-11 -129 0
-11 -153 0
-11 -177 0
-11 -198 0
-11 -223 0
-35 -59 0
-35 -80 0
-35 -104 0
-35 -129 0
-35 -153 0
-35 -177 0
-35 -198 0
-35 -223 0
-59 -80 0
-59 -104 0
-59 -129 0
-59 -153 0
-59 -177 0
-59 -198 0
-59 -223 0
-80 -104 0
-80 -129 0
-80 -153 0
-80 -177 0
-80 -198 0
-80 -223 0
-104 -129 0
-104 -153 0
-104 -177 0
-104 -198 0
-104 -223 0
-129 -153 0
-129 -177 0
-129 -198 0
-129 -223 0
-153 -177 0
-153 -198 0
-153 -223 0
-177 -198 0
-177 -223 0
-198 -223 0
-12 -36 0
-12 -81 0
-12 -105 0
-12 -130 0
-12 -154 0
-12 -178 0
-12 -199 0
-12 -224 0
-36 -81 0
-36 -105 0
-36 -130 0
-36 -154 0
-36 -178 0
-36 -199 0
-36 -224 0
-81 -105 0
-81 -130 0
-81 -154 0
-81 -178 0
-81 -199 0
-81 -224 0
-105 -130 0
-105 -154 0
-105 -178 0
-105 -199 0
-105 -224 0
-130 -154 0
-130 -178 0
-130 -199 0
-130 -224 0
-154 -178 0
-154 -199 0
-154 -224 0
-178 -199 0
-178 -224 0
-199 -224 0
-13 -37 0
-13 -60 0
-13 -82 0
-13 -106 0
-13 -131 0
-13 -155 0
-13 -179 0
-13 -200 0
-13 -225 0
-37 -60 0
-37 -82 0
-37 -106 0
-37 -131 0
-37 -155 0
-37 -179 0
-37 -200 0
-37 -225 0
-60 -82 0
-60 -106 0
-60 -131 0
-60 -155 0
-60 -179 0
-60 -200 0
-60 -225 0
-82 -106 0
-82 -131 0
-82 -155 0
-82 -179 0
-82 -200 0
-82 -225 0
-106 -131 0
-106 -155 0
-106 -179 0
-106 -200 0
-106 -225 0
-131 -155 0
-131 -179 0
-131 -200 0
-131 -225 0
-155 -179 0
-155 -200 0
-155 -225 0
-179 -200 0
-179 -225 0
-200 -225 0
-14 -38 0
-14 -61 0
-14 -83 0
-14 -107 0
-14 -132 0
-14 -156 0
-14 -180 0
-14 -201 0
-14 -226 0
-38 -61 0
-38 -83 0
-38 -107 0
-38 -132 0
-38 -156 0
-38 -180 0
-38 -201 0
-38 -226 0
-61 -83 0
-61 -107 0
-61 -132 0
-61 -156 0
-61 -180 0
-61 -201 0
-61 -226 0
-83 -107 0
-83 -132 0
-83 -156 0
-83 -180 0
-83 -201 0
-83 -226 0
-107 -132 0
-107 -156 0
-107 -180 0
-107 -201 0
-107 -226 0
-132 -156 0
-132 -180 0
-132 -201 0
-132 -226 0
-156 -180 0
-156 -201 0
-156 -226 0
-180 -201 0
-180 -226 0
-201 -226 0
-15 -39 0
-15 -62 0
-15 -84 0
-15 -108 0
-15 -133 0
-15 -157 0
-15 -181 0
-15 -202 0
-15 -227 0
-39 -62 0
-39 -84 0
-39 -108 0
-39 -133 0
-39 -157 0
-39 -181 0
-39 -202 0
-39 -227 0
-62 -84 0
-62 -108 0
-62 -133 0
-62 -157 0
-62 -181 0
-62 -202 0
-62 -227 0
-84 -108 0
-84 -133 0
-84 -157 0
-84 -181 0
-84 -202 0
-84 -227 0
-108 -133 0
-108 -157 0
-108 -181 0
-108 -202 0
-108 -227 0
-133 -157 0
-133 -181 0
-133 -202 0
-133 -227 0
-157 -181 0
-157 -202 0
-157 -227 0
-181 -202 0
-181 -227 0
-202 -227 0
-16 -40 0
-16 -63 0
-16 -85 0
-16 -109 0
-16 -158 0
-16 -182 0
-16 -203 0
-40 -63 0
-40 -85 0
-40 -109 0
-40 -158 0
-40 -182 0
-40 -203 0
-63 -85 0
-63 -109 0
-63 -158 0
-63 -182 0
-63 -203 0
-85 -109 0
-85 -158 0
-85 -182 0
-85 -203 0
-109 -158 0
-109 -182 0
-109 -203 0
-158 -182 0
-158 -203 0
-182 -203 0
-17 -41 0
-17 -86 0
-17 -110 0
-17 -134 0
-17 -159 0
-17 -183 0
-17 -204 0
-17 -228 0
-41 -86 0
-41 -110 0
-41 -134 0
-41 -159 0
-41 -183 0
-41 -204 0
-41 -228 0
-86 -110 0
-86 -134 0
-86 -159 0
-86 -183 0
-86 -204 0
-86 -228 0
-110 -134 0
-110 -159 0
-110 -183 0
-110 -204 0
-110 -228 0
-134 -159 0
-134 -183 0
-134 -204 0
-134 -228 0
-159 -183 0
-159 -204 0
-159 -228 0
-183 -204 0
-183 -228 0
-204 -228 0
-18 -42 0
-18 -64 0
-18 -87 0
-18 -111 0
-18 -135 0
-18 -160 0
-18 -184 0
-18 -205 0
-18 -229 0
-42 -64 0
-42 -87 0
-42 -111 0
-42 -135 0
-42 -160 0
-42 -184 0
-42 -205 0
-42 -229 0
-64 -87 0
-64 -111 0
-64 -135 0
-64 -160 0
-64 -184 0
-64 -205 0
-64 -229 0
-87 -111 0
-87 -135 0
-87 -160 0
-87 -184 0
-87 -205 0
-87 -229 0
-111 -135 0
-111 -160 0
-111 -184 0
-111 -205 0
-111 -229 0
-135 -160 0
-135 -184 0
-135 -205 0
-135 -229 0
-160 -184 0
-160 -205 0
-160 -229 0
-184 -205 0
-184 -229 0
-205 -229 0
-19 -43 0
-19 -65 0
-19 -88 0
-19 -112 0
-19 -136 0
-19 -161 0
-19 -185 0
-19 -206 0
-43 -65 0
-43 -88 0
-43 -112 0
-43 -136 0
-43 -161 0
-43 -185 0
-43 -206 0
-65 -88 0
-65 -112 0
-65 -136 0
-65 -161 0
-65 -185 0
-65 -206 0
-88 -112 0
-88 -136 0
-88 -161 0
-88 -185 0
-88 -206 0
-112 -136 0
-112 -161 0
-112 -185 0
-112 -206 0
-136 -161 0
-136 -185 0
-136 -206 0
-161 -185 0
-161 -206 0
-185 -206 0
-20 -44 0
-20 -66 0
-20 -89 0
-20 -113 0
-20 -137 0
-20 -162 0
-20 -207 0
-20 -230 0
-44 -66 0
-44 -89 0
-44 -113 0
-44 -137 0
-44 -162 0
-44 -207 0
-44 -230 0
-66 -89 0
-66 -113 0
-66 -137 0
-66 -162 0
-66 -207 0
-66 -230 0
-89 -113 0
-89 -137 0
-89 -162 0
-89 -207 0
-89 -230 0
-113 -137 0
-113 -162 0
-113 -207 0
-113 -230 0
-137 -162 0
-137 -207 0
-137 -230 0
-162 -207 0
-162 -230 0
-207 -230 0
-21 -45 0
-21 -90 0
-21 -114 0
-21 -138 0
-21 -163 0
-21 -186 0
-21 -208 0
-21 -231 0
-45 -90 0
-45 -114 0
-45 -138 0
-45 -163 0
-45 -186 0
-45 -208 0
-45 -231 0
-90 -114 0
-90 -138 0
-90 -163 0
-90 -186 0
-90 -208 0
-90 -231 0
-114 -138 0
-114 -163 0
-114 -186 0
-114 -208 0
-114 -231 0
-138 -163 0
-138 -186 0
-138 -208 0
-138 -231 0
-163 -186 0
-163 -208 0
-163 -231 0
-186 -208 0
-186 -231 0
-208 -231 0
-22 -46 0
-22 -67 0
-22 -91 0
-22 -115 0
-22 -139 0
-22 -209 0
-22 -232 0
-46 -67 0
-46 -91 0
-46 -115 0
-46 -139 0
-46 -209 0
-46 -232 0
-67 -91 0
-67 -115 0
-67 -139 0
-67 -209 0
-67 -232 0
-91 -115 0
-91 -139 0
-91 -209 0
-91 -232 0
-115 -139 0
-115 -209 0
-115 -232 0
-139 -209 0
-139 -232 0
-209 -232 0
-23 -47 0
-23 -68 0
-23 -92 0
-23 -116 0
-23 -140 0
-23 -164 0
-23 -210 0
-23 -233 0
-47 -68 0
-47 -92 0
-47 -116 0
-47 -140 0
-47 -164 0
-47 -210 0
-47 -233 0
-68 -92 0
-68 -116 0
-68 -140 0
-68 -164 0
-68 -210 0
-68 -233 0
-92 -116 0
-92 -140 0
-92 -164 0
-92 -210 0
-92 -233 0
-116 -140 0
-116 -164 0
-116 -210 0
-116 -233 0
-140 -164 0
-140 -210 0
-140 -233 0
-164 -210 0
-164 -233 0
-210 -233 0
-24 -48 0
-24 -69 0
-24 -93 0
-24 -117 0
-24 -141 0
-24 -165 0
-24 -187 0
-24 -211 0
-48 -69 0
-48 -93 0
-48 -117 0
-48 -141 0
-48 -165 0
-48 -187 0
-48 -211 0
-69 -93 0
-69 -117 0
-69 -141 0
-69 -165 0
-69 -187 0
-69 -211 0
-93 -117 0
-93 -141 0
-93 -165 0
-93 -187 0
-93 -211 0
-117 -141 0
-117 -165 0
-117 -187 0
-117 -211 0
-141 -165 0
-141 -187 0
-141 -211 0
-165 -187 0
-165 -211 0
-187 -211 0
-25 -49 0
-25 -70 0
-25 -94 0
-25 -118 0
-25 -142 0
-25 -166 0
-25 -188 0
-25 -212 0
-49 -70 0
-49 -94 0
-49 -118 0
-49 -142 0
-49 -166 0
-49 -188 0
-49 -212 0
-70 -94 0
-70 -118 0
-70 -142 0
-70 -166 0
-70 -188 0
-70 -212 0
-94 -118 0
-94 -142 0
-94 -166 0
-94 -188 0
-94 -212 0
-118 -142 0
-118 -166 0
-118 -188 0
-118 -212 0
-142 -166 0
-142 -188 0
-142 -212 0
-166 -188 0
-166 -212 0
-188 -212 0